/*********************************************
 * OPL 12.6.0.0 Data
 * Author: Adrian Rodriguez Bazaga, Pau Rodriguez Esmerats
 * Creation Date: 06/12/2017 at 23:04:58
 *********************************************/

nNurses=234;
maxConsec=2;
maxPresence=7;
maxHours=5;
minHours=1;
hours=24;
demand= [46 37 53 66 37 53 66 39 35 23 3 6 5 6 6 4 3 3 3 0 27 60 34 47  ];
